Instance: Data/Instances_txt/inst_200_50_1.txt
SetUpTime: 2540.02410697937

Gurobi 10.0.1 (mac64[x86]) logging started Do  3 Aug 05:34:05 2023

Set parameter LogFile to value "Output/MILP_inst_200_50_1_2023-08-02_21-36-03.txt"
Set parameter TimeLimit to value 2700

Gurobi 10.0.1 (mac64[x86]) logging started Do  3 Aug 05:34:05 2023

Set parameter LogFile to value "Output/MILP_inst_200_50_1_2023-08-02_21-36-03.txt"
Gurobi Optimizer version 10.0.1 build v10.0.1rc0 (mac64[x86])

CPU model: Intel(R) Core(TM) i5-1038NG7 CPU @ 2.00GHz
Thread count: 4 physical cores, 8 logical processors, using up to 8 threads

Optimize a model with 401 rows, 715429 columns and 8077823 nonzeros
Model fingerprint: 0xf85986ac
Variable types: 0 continuous, 715429 integer (0 binary)
Coefficient statistics:
  Matrix range     [1e+00, 1e+00]
  Objective range  [1e+00, 2e+04]
  Bounds range     [1e+00, 1e+00]
  RHS range        [1e+00, 1e+00]
Presolve removed 0 rows and 0 columns (presolve time = 5s) ...
Presolve removed 0 rows and 0 columns (presolve time = 10s) ...
Presolve removed 0 rows and 0 columns (presolve time = 15s) ...
Presolve removed 0 rows and 112 columns
Presolve time: 19.90s
Presolved: 401 rows, 715317 columns, 8076377 nonzeros
Variable types: 0 continuous, 715317 integer (715317 binary)

Root simplex log...

Iteration    Objective       Primal Inf.    Dual Inf.      Time
       0    0.0000000e+00   2.020000e+02   0.000000e+00     25s

Starting sifting (using dual simplex for sub-problems)...

    Iter     Pivots    Primal Obj      Dual Obj        Time
       0          0     infinity      0.0000000e+00     25s
       1       2125   2.0200000e+08   2.0049548e+02     25s
       2       6779   2.0200000e+08   3.1227435e+02     25s
       3       9959   2.0200000e+08   4.9863742e+02     26s
       4      13247   2.0200000e+08   6.8517153e+02     26s
       5      15968   1.9383975e+08   1.6279155e+03     26s
       6      19616   1.9321887e+08   1.9503988e+03     27s
       7      23736   1.8481249e+08   2.0808254e+03     27s
       8      27981   1.7956080e+08   2.2038226e+03     27s
       9      34012   1.6161051e+08   2.4868197e+03     28s
      10      37411   1.5924249e+08   2.8478723e+03     29s
      11      40858   1.5610394e+08   2.9712076e+03     29s
      12      44641   1.5159832e+08   3.1521375e+03     29s
      13      49656   1.4730830e+08   3.2514965e+03     30s
      14      53470   1.4184385e+08   3.5641124e+03     30s
      15      60482   1.3994402e+08   3.8639845e+03     31s
      16      67416   1.3774724e+08   4.1729454e+03     32s
      17      71608   1.2527067e+08   4.5205866e+03     33s
      18      77294   1.1920550e+08   4.8215427e+03     33s
      19      83342   1.1332768e+08   5.1064587e+03     34s
      20      88547   1.1106691e+08   5.5811165e+03     35s
      21      94252   1.0425937e+08   5.7154150e+03     36s
      22     100657   9.8033848e+07   6.2631158e+03     37s
      23     106449   9.3408837e+07   6.6385219e+03     38s
      24     116591   8.6551820e+07   7.3600848e+03     40s
      25     124511   8.3588417e+07   7.5009359e+03     42s
      26     130164   8.0690004e+07   7.7654452e+03     43s
      27     138731   7.7195339e+07   8.1990235e+03     45s
      28     146437   7.4158132e+07   9.3893059e+03     47s
      29     157011   6.5478952e+07   9.7914962e+03     49s
      30     168504   5.9234750e+07   1.0465463e+04     52s
      31     179603   4.6410552e+07   1.0945279e+04     55s
      32     189134   3.5443147e+07   1.1474531e+04     57s
      33     199439   3.0116806e+07   1.1764104e+04     60s
      34     208088   2.6670467e+07   1.2058639e+04     63s
      35     218829   2.4902955e+07   1.2578946e+04     66s
      36     228971   2.2865142e+07   1.2931513e+04     69s
      37     239885   1.9266519e+07   1.3476629e+04     73s
      38     252759   1.2547981e+07   1.3834984e+04     77s
      39     263620   7.3843300e+06   1.4240136e+04     81s
      40     274052   1.1932673e+06   1.4285330e+04     85s
      41     282882   1.3522042e+05  -1.5197878e+04     89s
      42     290480   1.2404436e+05  -9.9526650e+03     93s
      43     296190   1.1550439e+05  -6.4450155e+03     96s
      44     302683   1.0660164e+05  -8.8253522e+02     99s
      45     310152   9.1973949e+04   9.3963942e+03    103s
      46     319189   8.6253395e+04   2.0878856e+04    108s
      47     329423   8.0736420e+04   3.6539316e+04    115s
      48     340606   7.7861702e+04   5.5846946e+04    122s
      49     354460   7.5911580e+04   6.8146710e+04    131s

Sifting complete

  365395    7.3546201e+04   3.604385e+04   0.000000e+00    137s
  365621    7.5822300e+04   3.363574e+03   0.000000e+00    140s
  366023    7.6203250e+04   2.004639e+03   0.000000e+00    145s
  366303    7.6272859e+04   2.102787e+02   0.000000e+00    151s
  366493    7.6288960e+04   7.994606e+02   0.000000e+00    155s
  366733    7.6298160e+04   1.383369e+02   0.000000e+00    161s
  366983    7.6303814e+04   8.274293e+01   0.000000e+00    167s
  367163    7.6307965e+04   1.292232e+02   0.000000e+00    171s
  367373    7.6309279e+04   2.355649e+01   0.000000e+00    176s
  367543    7.6310928e+04   1.444892e+02   0.000000e+00    180s
  367843    7.6312704e+04   4.919816e+01   0.000000e+00    187s
  368053    7.6313315e+04   1.464581e+02   0.000000e+00    192s
  368293    7.6313874e+04   1.253514e+01   0.000000e+00    197s
  368515    7.6314210e+04   0.000000e+00   0.000000e+00    202s

Root relaxation: objective 7.631421e+04, 368515 iterations, 177.80 seconds (277.60 work units)

    Nodes    |    Current Node    |     Objective Bounds      |     Work
 Expl Unexpl |  Obj  Depth IntInf | Incumbent    BestBd   Gap | It/Node Time

     0     0 76314.2096    0  327          - 76314.2096      -     -  214s
     0     0 76314.5769    0  335          - 76314.5769      -     -  214s
     0     0 76314.5769    0  335          - 76314.5769      -     -  265s
     0     0 76352.6062    0  334          - 76352.6062      -     -  559s
     0     0 76353.6638    0  331          - 76353.6638      -     -  562s
     0     0 76354.5029    0  331          - 76354.5029      -     -  566s
     0     0 76355.4262    0  332          - 76355.4262      -     -  569s
     0     0 76356.0820    0  341          - 76356.0820      -     -  574s
     0     0 76356.4232    0  336          - 76356.4232      -     -  578s
     0     0 76356.9534    0  338          - 76356.9534      -     -  584s
     0     0 76357.7275    0  337          - 76357.7275      -     -  588s
     0     0 76358.2668    0  330          - 76358.2668      -     -  593s
     0     0 76358.5505    0  338          - 76358.5505      -     -  597s
     0     0 76358.8330    0  340          - 76358.8330      -     -  597s
     0     0 76722.3348    0  393          - 76722.3348      -     -  837s
     0     0 76724.8331    0  396          - 76724.8331      -     -  849s
     0     0 76727.0698    0  390          - 76727.0698      -     -  861s
     0     0 76728.3294    0  397          - 76728.3294      -     -  867s
     0     0 76730.6506    0  394          - 76730.6506      -     -  874s
     0     0 76732.1287    0  396          - 76732.1287      -     -  886s
     0     0 76735.9516    0  401          - 76735.9516      -     -  896s
     0     0 76739.0578    0  402          - 76739.0578      -     -  905s
     0     0 76742.0545    0  393          - 76742.0545      -     -  917s
     0     0 76742.9168    0  393          - 76742.9168      -     -  921s
     0     0 76743.3955    0  398          - 76743.3955      -     -  925s
     0     0 76751.7924    0  388          - 76751.7924      -     -  966s
     0     0 76753.3830    0  395          - 76753.3830      -     -  978s
     0     0 76754.4523    0  390          - 76754.4523      -     -  987s
     0     0 76755.3344    0  393          - 76755.3344      -     -  995s
     0     0 76756.5756    0  394          - 76756.5756      -     - 1004s
     0     0 76756.7875    0  392          - 76756.7875      -     - 1010s
     0     0 76757.5868    0  391          - 76757.5868      -     - 1018s
     0     0 76758.3403    0  392          - 76758.3403      -     - 1029s
     0     0 76758.6399    0  389          - 76758.6399      -     - 1033s
     0     0 76758.7253    0  392          - 76758.7253      -     - 1038s
     0     0 76758.8107    0  393          - 76758.8107      -     - 1041s
     0     0 76759.1802    0  392          - 76759.1802      -     - 1051s
     0     0 76759.3560    0  385          - 76759.3560      -     - 1055s
     0     0 76759.5808    0  389          - 76759.5808      -     - 1058s
     0     0 76759.6985    0  385          - 76759.6985      -     - 1061s
     0     0 76759.7773    0  389          - 76759.7773      -     - 1063s
     0     0 76759.9556    0  389          - 76759.9556      -     - 1065s
     0     0 76760.1288    0  393          - 76760.1288      -     - 1068s
     0     0 76760.3096    0  390          - 76760.3096      -     - 1072s
     0     0 76760.3655    0  391          - 76760.3655      -     - 1077s
     0     0 76760.3794    0  393          - 76760.3794      -     - 1079s
     0     0 76760.3922    0  391          - 76760.3922      -     - 1081s
     0     0 76979.5894    0  456          - 76979.5894      -     - 1254s
     0     0 76981.8692    0  457          - 76981.8692      -     - 1269s
     0     0 76983.7692    0  449          - 76983.7692      -     - 1284s
     0     0 76985.3025    0  455          - 76985.3025      -     - 1298s
     0     0 76985.9061    0  449          - 76985.9061      -     - 1307s
     0     0 76986.8608    0  441          - 76986.8608      -     - 1315s
     0     0 76987.5548    0  446          - 76987.5548      -     - 1328s
     0     0 76988.4659    0  454          - 76988.4659      -     - 1341s
     0     0 76989.2888    0  446          - 76989.2888      -     - 1348s
     0     0 76989.7065    0  454          - 76989.7065      -     - 1355s
     0     0 76990.1271    0  444          - 76990.1271      -     - 1361s
     0     0 77000.0114    0  456          - 77000.0114      -     - 1411s
     0     0 77001.1301    0  457          - 77001.1301      -     - 1425s
     0     0 77002.2778    0  457          - 77002.2778      -     - 1437s
     0     0 77002.8400    0  448          - 77002.8400      -     - 1448s
     0     0 77003.0868    0  451          - 77003.0868      -     - 1453s
     0     0 77003.2848    0  450          - 77003.2848      -     - 1457s
     0     0 77003.4866    0  449          - 77003.4866      -     - 1461s
     0     0 77003.6625    0  450          - 77003.6625      -     - 1466s
     0     0 77003.7441    0  450          - 77003.7441      -     - 1468s
     0     0 77003.8164    0  445          - 77003.8164      -     - 1473s
     0     0 77003.9652    0  450          - 77003.9652      -     - 1478s
     0     0 77100.4119    0  478          - 77100.4119      -     - 1633s
     0     0 77104.3302    0  479          - 77104.3302      -     - 1657s
     0     0 77105.6091    0  483          - 77105.6091      -     - 1671s
     0     0 77106.4676    0  479          - 77106.4676      -     - 1681s
     0     0 77106.9500    0  477          - 77106.9500      -     - 1691s
     0     0 77107.1223    0  476          - 77107.1223      -     - 1698s
     0     0 77107.3095    0  477          - 77107.3095      -     - 1704s
     0     0 77107.5000    0  476          - 77107.5000      -     - 1709s
     0     0 77107.7244    0  481          - 77107.7244      -     - 1714s
     0     0 77107.9044    0  475          - 77107.9044      -     - 1717s
     0     0 77108.0738    0  480          - 77108.0738      -     - 1720s
     0     0 77109.2368    0  483          - 77109.2368      -     - 1864s
     0     0 77109.3716    0  483          - 77109.3716      -     - 1870s
     0     0 77109.4672    0  487          - 77109.4672      -     - 1875s
     0     0 77109.5331    0  488          - 77109.5331      -     - 1880s
     0     0 77109.5971    0  488          - 77109.5971      -     - 1884s
     0     0 77109.6766    0  485          - 77109.6766      -     - 1888s
     0     0 77109.7025    0  487          - 77109.7025      -     - 1890s
     0     0 77109.7547    0  485          - 77109.7547      -     - 1894s
     0     0 77109.8295    0  489          - 77109.8295      -     - 1898s
     0     0 77109.9052    0  485          - 77109.9052      -     - 1902s
     0     0 77109.9146    0  488          - 77109.9146      -     - 1903s
     0     0 77110.0950    0  487          - 77110.0950      -     - 1912s
     0     0 77110.1401    0  489          - 77110.1401      -     - 1915s
     0     0 77110.1717    0  490          - 77110.1717      -     - 1917s
     0     0 77110.1733    0  490          - 77110.1733      -     - 1918s
     0     0 77110.1738    0  488          - 77110.1738      -     - 1919s
     0     0 77110.1738    0  487          - 77110.1738      -     - 1919s
     0     0 77180.6935    0  521          - 77180.6935      -     - 2082s
     0     0 77181.0690    0  528          - 77181.0690      -     - 2091s
     0     0 77181.2048    0  530          - 77181.2048      -     - 2096s
     0     0 77181.3707    0  527          - 77181.3707      -     - 2102s
     0     0 77181.4557    0  528          - 77181.4557      -     - 2107s
     0     0 77181.4879    0  525          - 77181.4879      -     - 2111s
     0     0 77181.5346    0  531          - 77181.5346      -     - 2114s
     0     0 77181.5620    0  527          - 77181.5620      -     - 2118s
     0     0 77181.5948    0  528          - 77181.5948      -     - 2121s
     0     0 77181.6243    0  529          - 77181.6243      -     - 2125s
     0     0 77181.6398    0  530          - 77181.6398      -     - 2127s
     0     0 77190.2797    0  535          - 77190.2797      -     - 2181s
     0     0 77190.3375    0  533          - 77190.3375      -     - 2185s
     0     0 77190.3531    0  533          - 77190.3531      -     - 2187s
     0     0 77190.3546    0  533          - 77190.3546      -     - 2188s
     0     0 77190.3550    0  534          - 77190.3550      -     - 2189s
     0     0 77190.3553    0  533          - 77190.3553      -     - 2190s
     0     0 77190.3554    0  534          - 77190.3554      -     - 2190s
     0     0 77190.8061    0  535          - 77190.8061      -     - 2200s
     0     0 77191.1012    0  542          - 77191.1012      -     - 2211s
     0     0 77240.2885    0  583          - 77240.2885      -     - 2388s
     0     0 77241.2617    0  583          - 77241.2617      -     - 2404s
     0     0 77241.5277    0  584          - 77241.5277      -     - 2413s
     0     0 77241.7679    0  583          - 77241.7679      -     - 2425s
     0     0 77241.8239    0  584          - 77241.8239      -     - 2430s
     0     0 77241.9447    0  584          - 77241.9447      -     - 2438s
     0     0 77242.0023    0  582          - 77242.0023      -     - 2443s
     0     0 77242.0301    0  583          - 77242.0301      -     - 2448s
     0     0 77242.0575    0  583          - 77242.0575      -     - 2451s
     0     0 77242.0831    0  586          - 77242.0831      -     - 2455s
     0     0 77242.0884    0  588          - 77242.0884      -     - 2457s
     0     0 77243.5880    0  590          - 77243.5880      -     - 2487s
     0     0 77243.7035    0  593          - 77243.7035      -     - 2494s
     0     0 77243.7347    0  594          - 77243.7347      -     - 2497s
     0     0 77243.7515    0  589          - 77243.7515      -     - 2501s
     0     0 77243.7720    0  595          - 77243.7720      -     - 2505s
     0     0 77243.7752    0  590          - 77243.7752      -     - 2507s
     0     0 77243.7847    0  589          - 77243.7847      -     - 2509s
     0     0 77243.7913    0  589          - 77243.7913      -     - 2511s
     0     0 77243.7975    0  590          - 77243.7975      -     - 2513s
     0     0 77243.7997    0  591          - 77243.7997      -     - 2515s
     0     0 77243.8053    0  590          - 77243.8053      -     - 2516s
     0     0 77244.1217    0  595          - 77244.1217      -     - 2526s
     0     0 77244.1236    0  595          - 77244.1236      -     - 2527s
     0     0 77244.1265    0  595          - 77244.1265      -     - 2529s
     0     0 77244.1357    0  596          - 77244.1357      -     - 2530s
     0     0 77244.1433    0  594          - 77244.1433      -     - 2533s
     0     0 77244.1470    0  592          - 77244.1470      -     - 2534s
     0     0 77244.1517    0  592          - 77244.1517      -     - 2536s
     0     0 77244.1529    0  592          - 77244.1529      -     - 2537s
     0     0 77244.1536    0  592          - 77244.1536      -     - 2538s
     0     0 77244.1536    0  592          - 77244.1536      -     - 2539s
     0     0 77244.1536    0  592          - 77244.1536      -     - 2539s
     0     0 77272.1648    0  627          - 77272.1648      -     - 2683s
     0     0 77273.3503    0  630          - 77273.3503      -     - 2700s

Cutting planes:
  Clique: 272
  MIR: 3
  Zero half: 3
  RLT: 4

Explored 1 nodes (816996 simplex iterations) in 2700.16 seconds (2969.34 work units)
Thread count was 8 (of 8 available processors)

Solution count 0

Time limit reached
Best objective -, best bound 7.727400000000e+04, gap -

User-callback calls 49561, time in user-callback 0.15 sec

=========================

OUTPUT STATISTICS
Relaxed: false
Time since start: 5262.589125156403
SetUpTime: 2540.024106025696
Objective value: 0
Solving time: 2721.9910509586334
